GRAPH IS : 
0 0 0 0 0 0 0 0 0 0 0 0 0 0 0 0 0 0 0 0 0 0 0 0 0 0 0 0 0 0 0 0 0 0 0 0 0 0 0 0 0 0 0 0 0 0 0 
0 0 1 0 1 0 0 1 0 1 0 0 0 1 0 1 0 0 1 0 1 0 0 0 0 1 0 1 0 0 1 0 1 0 0 0 1 0 1 0 0 1 0 1 0 0 0 
0 0 0 1 0 0 1 0 1 0 0 0 1 0 1 0 0 1 0 1 0 0 0 0 1 0 1 0 0 1 0 1 0 0 0 1 0 1 0 0 1 0 1 0 0 0 0 
0 0 0 0 0 1 0 1 0 0 1 0 0 1 0 0 1 0 1 0 0 1 0 0 0 1 0 0 1 0 1 0 0 1 0 0 1 0 0 1 0 1 0 0 1 0 0 
0 0 0 0 0 1 1 0 0 0 1 0 1 0 0 0 1 1 0 0 0 1 0 0 1 0 0 0 1 1 0 0 0 1 0 1 0 0 0 1 1 0 0 0 1 0 0 
0 0 0 0 0 0 0 0 1 1 0 0 0 0 1 1 0 0 0 1 1 0 0 0 0 0 1 1 0 0 0 1 1 0 0 0 0 1 1 0 0 0 1 1 0 0 0 
0 0 0 0 0 0 0 0 0 0 0 1 0 1 0 1 0 0 0 0 0 0 1 0 0 1 0 1 0 0 0 0 0 0 1 0 1 0 1 0 0 0 0 0 0 1 0 
0 0 0 0 0 0 0 0 0 0 0 1 1 0 1 0 0 0 0 0 0 0 1 0 1 0 1 0 0 0 0 0 0 0 1 1 0 1 0 0 0 0 0 0 0 1 0 
0 0 0 0 0 0 0 0 0 0 0 1 0 1 0 0 1 0 0 0 0 0 1 0 0 1 0 0 1 0 0 0 0 0 1 0 1 0 0 1 0 0 0 0 0 1 0 
0 0 0 0 0 0 0 0 0 0 0 1 1 0 0 0 1 0 0 0 0 0 1 0 1 0 0 0 1 0 0 0 0 0 1 1 0 0 0 1 0 0 0 0 0 1 0 
0 0 0 0 0 0 0 0 0 0 0 1 0 0 1 1 0 0 0 0 0 0 1 0 0 0 1 1 0 0 0 0 0 0 1 0 0 1 1 0 0 0 0 0 0 1 0 
0 0 0 0 0 0 0 0 0 0 0 0 0 0 0 0 0 1 1 1 1 1 0 0 0 0 0 0 0 1 1 1 1 1 0 0 0 0 0 0 1 1 1 1 1 0 0 
0 0 0 0 0 0 0 0 0 0 0 0 0 0 0 0 0 0 0 0 0 0 0 1 0 1 0 1 0 0 1 0 1 0 0 0 0 0 0 0 0 0 0 0 0 0 1 
0 0 0 0 0 0 0 0 0 0 0 0 0 0 0 0 0 0 0 0 0 0 0 1 1 0 1 0 0 1 0 1 0 0 0 0 0 0 0 0 0 0 0 0 0 0 1 
0 0 0 0 0 0 0 0 0 0 0 0 0 0 0 0 0 0 0 0 0 0 0 1 0 1 0 0 1 0 1 0 0 1 0 0 0 0 0 0 0 0 0 0 0 0 1 
0 0 0 0 0 0 0 0 0 0 0 0 0 0 0 0 0 0 0 0 0 0 0 1 1 0 0 0 1 1 0 0 0 1 0 0 0 0 0 0 0 0 0 0 0 0 1 
0 0 0 0 0 0 0 0 0 0 0 0 0 0 0 0 0 0 0 0 0 0 0 1 0 0 1 1 0 0 0 1 1 0 0 0 0 0 0 0 0 0 0 0 0 0 1 
0 0 0 0 0 0 0 0 0 0 0 0 0 0 0 0 0 0 0 0 0 0 0 1 0 1 0 1 0 0 0 0 0 0 1 0 0 0 0 0 0 0 0 0 0 0 1 
0 0 0 0 0 0 0 0 0 0 0 0 0 0 0 0 0 0 0 0 0 0 0 1 1 0 1 0 0 0 0 0 0 0 1 0 0 0 0 0 0 0 0 0 0 0 1 
0 0 0 0 0 0 0 0 0 0 0 0 0 0 0 0 0 0 0 0 0 0 0 1 0 1 0 0 1 0 0 0 0 0 1 0 0 0 0 0 0 0 0 0 0 0 1 
0 0 0 0 0 0 0 0 0 0 0 0 0 0 0 0 0 0 0 0 0 0 0 1 1 0 0 0 1 0 0 0 0 0 1 0 0 0 0 0 0 0 0 0 0 0 1 
0 0 0 0 0 0 0 0 0 0 0 0 0 0 0 0 0 0 0 0 0 0 0 1 0 0 1 1 0 0 0 0 0 0 1 0 0 0 0 0 0 0 0 0 0 0 1 
0 0 0 0 0 0 0 0 0 0 0 0 0 0 0 0 0 0 0 0 0 0 0 1 0 0 0 0 0 1 1 1 1 1 0 0 0 0 0 0 0 0 0 0 0 0 1 
0 0 0 0 0 0 0 0 0 0 0 0 0 0 0 0 0 0 0 0 0 0 0 0 0 0 0 0 0 0 0 0 0 0 0 1 1 1 1 1 1 1 1 1 1 1 0 
0 0 0 0 0 0 0 0 0 0 0 0 0 0 0 0 0 0 0 0 0 0 0 0 0 0 0 0 0 0 0 0 0 0 0 0 0 0 0 0 0 0 0 0 0 0 0 
0 0 0 0 0 0 0 0 0 0 0 0 0 0 0 0 0 0 0 0 0 0 0 0 0 0 0 0 0 0 0 0 0 0 0 0 0 0 0 0 0 0 0 0 0 0 0 
0 0 0 0 0 0 0 0 0 0 0 0 0 0 0 0 0 0 0 0 0 0 0 0 0 0 0 0 0 0 0 0 0 0 0 0 0 0 0 0 0 0 0 0 0 0 0 
0 0 0 0 0 0 0 0 0 0 0 0 0 0 0 0 0 0 0 0 0 0 0 0 0 0 0 0 0 0 0 0 0 0 0 0 0 0 0 0 0 0 0 0 0 0 0 
0 0 0 0 0 0 0 0 0 0 0 0 0 0 0 0 0 0 0 0 0 0 0 0 0 0 0 0 0 0 0 0 0 0 0 0 0 0 0 0 0 0 0 0 0 0 0 
0 0 0 0 0 0 0 0 0 0 0 0 0 0 0 0 0 0 0 0 0 0 0 0 0 0 0 0 0 0 0 0 0 0 0 0 0 0 0 0 0 0 0 0 0 0 0 
0 0 0 0 0 0 0 0 0 0 0 0 0 0 0 0 0 0 0 0 0 0 0 0 0 0 0 0 0 0 0 0 0 0 0 0 0 0 0 0 0 0 0 0 0 0 0 
0 0 0 0 0 0 0 0 0 0 0 0 0 0 0 0 0 0 0 0 0 0 0 0 0 0 0 0 0 0 0 0 0 0 0 0 0 0 0 0 0 0 0 0 0 0 0 
0 0 0 0 0 0 0 0 0 0 0 0 0 0 0 0 0 0 0 0 0 0 0 0 0 0 0 0 0 0 0 0 0 0 0 0 0 0 0 0 0 0 0 0 0 0 0 
0 0 0 0 0 0 0 0 0 0 0 0 0 0 0 0 0 0 0 0 0 0 0 0 0 0 0 0 0 0 0 0 0 0 0 0 0 0 0 0 0 0 0 0 0 0 0 
0 0 0 0 0 0 0 0 0 0 0 0 0 0 0 0 0 0 0 0 0 0 0 0 0 0 0 0 0 0 0 0 0 0 0 0 0 0 0 0 0 0 0 0 0 0 0 
0 0 0 0 0 0 0 0 0 0 0 0 0 0 0 0 0 0 0 0 0 0 0 0 0 0 0 0 0 0 0 0 0 0 0 0 0 0 0 0 0 0 0 0 0 0 0 
0 0 0 0 0 0 0 0 0 0 0 0 0 0 0 0 0 0 0 0 0 0 0 0 0 0 0 0 0 0 0 0 0 0 0 0 0 0 0 0 0 0 0 0 0 0 0 
0 0 0 0 0 0 0 0 0 0 0 0 0 0 0 0 0 0 0 0 0 0 0 0 0 0 0 0 0 0 0 0 0 0 0 0 0 0 0 0 0 0 0 0 0 0 0 
0 0 0 0 0 0 0 0 0 0 0 0 0 0 0 0 0 0 0 0 0 0 0 0 0 0 0 0 0 0 0 0 0 0 0 0 0 0 0 0 0 0 0 0 0 0 0 
0 0 0 0 0 0 0 0 0 0 0 0 0 0 0 0 0 0 0 0 0 0 0 0 0 0 0 0 0 0 0 0 0 0 0 0 0 0 0 0 0 0 0 0 0 0 0 
0 0 0 0 0 0 0 0 0 0 0 0 0 0 0 0 0 0 0 0 0 0 0 0 0 0 0 0 0 0 0 0 0 0 0 0 0 0 0 0 0 0 0 0 0 0 0 
0 0 0 0 0 0 0 0 0 0 0 0 0 0 0 0 0 0 0 0 0 0 0 0 0 0 0 0 0 0 0 0 0 0 0 0 0 0 0 0 0 0 0 0 0 0 0 
0 0 0 0 0 0 0 0 0 0 0 0 0 0 0 0 0 0 0 0 0 0 0 0 0 0 0 0 0 0 0 0 0 0 0 0 0 0 0 0 0 0 0 0 0 0 0 
0 0 0 0 0 0 0 0 0 0 0 0 0 0 0 0 0 0 0 0 0 0 0 0 0 0 0 0 0 0 0 0 0 0 0 0 0 0 0 0 0 0 0 0 0 0 0 
0 0 0 0 0 0 0 0 0 0 0 0 0 0 0 0 0 0 0 0 0 0 0 0 0 0 0 0 0 0 0 0 0 0 0 0 0 0 0 0 0 0 0 0 0 0 0 
0 0 0 0 0 0 0 0 0 0 0 0 0 0 0 0 0 0 0 0 0 0 0 0 0 0 0 0 0 0 0 0 0 0 0 0 0 0 0 0 0 0 0 0 0 0 0 
0 0 0 0 0 0 0 0 0 0 0 0 0 0 0 0 0 0 0 0 0 0 0 0 0 0 0 0 0 0 0 0 0 0 0 0 0 0 0 0 0 0 0 0 0 0 0 




----------------------------

EPOCH: 0 MAX:  -24.468085106    AVG:  -43.941489362
EPOCH: 1 MAX:  -24.468085106    AVG:  -40.015957447
EPOCH: 2 MAX:  -24.468085106    AVG:  -34.468085106
EPOCH: 3 MAX:  -22.340425532    AVG:  -29.244680851
EPOCH: 4 MAX:  -22.340425532    AVG:  -26.409574468
EPOCH: 5 MAX:  -22.340425532    AVG:  -24.781914894
EPOCH: 6 MAX:  -22.340425532    AVG:  -23.904255319
EPOCH: 7 MAX:  -22.340425532    AVG:  -23.287234043
EPOCH: 8 MAX:  -21.276595745    AVG:  -22.579787234
EPOCH: 9 MAX:  -21.276595745    AVG:  -22.250000000
EPOCH: 10 MAX:  -20.212765957    AVG:  -22.031914894
EPOCH: 11 MAX:  -20.212765957    AVG:  -21.670212766
EPOCH: 12 MAX:  -20.212765957    AVG:  -21.223404255
EPOCH: 13 MAX:  -20.212765957    AVG:  -21.085106383
EPOCH: 14 MAX:  -20.212765957    AVG:  -20.835106383
EPOCH: 15 MAX:  -19.148936170    AVG:  -20.239361702
EPOCH: 16 MAX:  -19.148936170    AVG:  -20.196808511
EPOCH: 17 MAX:  -19.148936170    AVG:  -20.186170213
EPOCH: 18 MAX:  -19.148936170    AVG:  -20.164893617
EPOCH: 19 MAX:  -19.148936170    AVG:  -20.074468085
EPOCH: 20 MAX:  -19.148936170    AVG:  -19.888297872
EPOCH: 21 MAX:  -19.148936170    AVG:  -19.425531915
EPOCH: 22 MAX:  -19.148936170    AVG:  -19.148936170
EPOCH: 23 MAX:  -19.148936170    AVG:  -19.148936170
EPOCH: 24 MAX:  -19.148936170    AVG:  -19.148936170
EPOCH: 25 MAX:  -19.148936170    AVG:  -19.148936170
EPOCH: 26 MAX:  -19.148936170    AVG:  -19.148936170
EPOCH: 27 MAX:  -19.148936170    AVG:  -19.148936170
EPOCH: 28 MAX:  -19.148936170    AVG:  -19.148936170
EPOCH: 29 MAX:  -19.148936170    AVG:  -19.148936170
EPOCH: 30 MAX:  -19.148936170    AVG:  -19.148936170
EPOCH: 31 MAX:  -19.148936170    AVG:  -19.148936170
EPOCH: 32 MAX:  -19.148936170    AVG:  -19.148936170
EPOCH: 33 MAX:  -19.148936170    AVG:  -19.148936170
EPOCH: 34 MAX:  -19.148936170    AVG:  -19.148936170
EPOCH: 35 MAX:  -19.148936170    AVG:  -19.148936170
EPOCH: 36 MAX:  -19.148936170    AVG:  -19.148936170
EPOCH: 37 MAX:  -19.148936170    AVG:  -19.148936170
EPOCH: 38 MAX:  -19.148936170    AVG:  -19.148936170
EPOCH: 39 MAX:  -19.148936170    AVG:  -19.148936170
EPOCH: 40 MAX:  -19.148936170    AVG:  -19.148936170
EPOCH: 41 MAX:  -19.148936170    AVG:  -19.148936170
EPOCH: 42 MAX:  -19.148936170    AVG:  -19.148936170
EPOCH: 43 MAX:  -19.148936170    AVG:  -19.148936170
EPOCH: 44 MAX:  -19.148936170    AVG:  -19.148936170
EPOCH: 45 MAX:  -19.148936170    AVG:  -19.148936170
EPOCH: 46 MAX:  -19.148936170    AVG:  -19.148936170
EPOCH: 47 MAX:  -19.148936170    AVG:  -19.148936170
EPOCH: 48 MAX:  -19.148936170    AVG:  -19.148936170
EPOCH: 49 MAX:  -19.148936170    AVG:  -19.148936170
EPOCH: 50 MAX:  -19.148936170    AVG:  -19.148936170
EPOCH: 51 MAX:  -18.085106383    AVG:  -19.143617021
EPOCH: 52 MAX:  -18.085106383    AVG:  -19.143617021
EPOCH: 53 MAX:  -18.085106383    AVG:  -19.138297872
EPOCH: 54 MAX:  -18.085106383    AVG:  -19.122340426
EPOCH: 55 MAX:  -18.085106383    AVG:  -19.069148936
EPOCH: 56 MAX:  -18.085106383    AVG:  -18.920212766
EPOCH: 57 MAX:  -18.085106383    AVG:  -18.659574468
EPOCH: 58 MAX:  -18.085106383    AVG:  -18.085106383
EPOCH: 59 MAX:  -18.085106383    AVG:  -18.085106383
EPOCH: 60 MAX:  -18.085106383    AVG:  -18.085106383
EPOCH: 61 MAX:  -18.085106383    AVG:  -18.085106383
EPOCH: 62 MAX:  -18.085106383    AVG:  -18.085106383
EPOCH: 63 MAX:  -18.085106383    AVG:  -18.085106383
EPOCH: 64 MAX:  -18.085106383    AVG:  -18.085106383
EPOCH: 65 MAX:  -18.085106383    AVG:  -18.085106383
EPOCH: 66 MAX:  -18.085106383    AVG:  -18.085106383
EPOCH: 67 MAX:  -18.085106383    AVG:  -18.085106383
EPOCH: 68 MAX:  -18.085106383    AVG:  -18.085106383
EPOCH: 69 MAX:  -18.085106383    AVG:  -18.085106383
EPOCH: 70 MAX:  -18.085106383    AVG:  -18.085106383
EPOCH: 71 MAX:  -18.085106383    AVG:  -18.085106383
EPOCH: 72 MAX:  -18.085106383    AVG:  -18.085106383
EPOCH: 73 MAX:  -18.085106383    AVG:  -18.085106383
EPOCH: 74 MAX:  -18.085106383    AVG:  -18.085106383
EPOCH: 75 MAX:  -18.085106383    AVG:  -18.085106383
EPOCH: 76 MAX:  -18.085106383    AVG:  -18.085106383
EPOCH: 77 MAX:  -18.085106383    AVG:  -18.085106383
EPOCH: 78 MAX:  -18.085106383    AVG:  -18.085106383
EPOCH: 79 MAX:  -18.085106383    AVG:  -18.085106383
EPOCH: 80 MAX:  -18.085106383    AVG:  -18.085106383
EPOCH: 81 MAX:  -18.085106383    AVG:  -18.085106383
EPOCH: 82 MAX:  -18.085106383    AVG:  -18.085106383
EPOCH: 83 MAX:  -18.085106383    AVG:  -18.085106383
EPOCH: 84 MAX:  -18.085106383    AVG:  -18.085106383
EPOCH: 85 MAX:  -18.085106383    AVG:  -18.085106383
EPOCH: 86 MAX:  -18.085106383    AVG:  -18.085106383
EPOCH: 87 MAX:  -18.085106383    AVG:  -18.085106383
EPOCH: 88 MAX:  -18.085106383    AVG:  -18.085106383
EPOCH: 89 MAX:  -18.085106383    AVG:  -18.085106383
EPOCH: 90 MAX:  -18.085106383    AVG:  -18.085106383
EPOCH: 91 MAX:  -18.085106383    AVG:  -18.085106383
EPOCH: 92 MAX:  -18.085106383    AVG:  -18.085106383
EPOCH: 93 MAX:  -18.085106383    AVG:  -18.085106383
EPOCH: 94 MAX:  -18.085106383    AVG:  -18.085106383
EPOCH: 95 MAX:  -18.085106383    AVG:  -18.085106383
EPOCH: 96 MAX:  -18.085106383    AVG:  -18.085106383
EPOCH: 97 MAX:  -18.085106383    AVG:  -18.085106383
EPOCH: 98 MAX:  -18.085106383    AVG:  -18.085106383
EPOCH: 99 MAX:  -18.085106383    AVG:  -18.085106383
HELPER:  ....
EPOCH: 100 MAX:  -18.085106383    AVG:  -18.085106383
EPOCH: 101 MAX:  -18.085106383    AVG:  -18.085106383
EPOCH: 102 MAX:  -18.085106383    AVG:  -18.085106383
EPOCH: 103 MAX:  -18.085106383    AVG:  -18.085106383
EPOCH: 104 MAX:  -18.085106383    AVG:  -18.085106383
EPOCH: 105 MAX:  -18.085106383    AVG:  -18.085106383
EPOCH: 106 MAX:  -18.085106383    AVG:  -18.085106383
EPOCH: 107 MAX:  -18.085106383    AVG:  -18.085106383
EPOCH: 108 MAX:  -18.085106383    AVG:  -18.085106383
EPOCH: 109 MAX:  -18.085106383    AVG:  -18.085106383
EPOCH: 110 MAX:  -18.085106383    AVG:  -18.085106383
EPOCH: 111 MAX:  -18.085106383    AVG:  -18.085106383
EPOCH: 112 MAX:  -18.085106383    AVG:  -18.085106383
EPOCH: 113 MAX:  -18.085106383    AVG:  -18.085106383
EPOCH: 114 MAX:  -18.085106383    AVG:  -18.085106383
EPOCH: 115 MAX:  -18.085106383    AVG:  -18.085106383
EPOCH: 116 MAX:  -18.085106383    AVG:  -18.085106383
EPOCH: 117 MAX:  -18.085106383    AVG:  -18.085106383
EPOCH: 118 MAX:  -18.085106383    AVG:  -18.085106383
EPOCH: 119 MAX:  -18.085106383    AVG:  -18.085106383
EPOCH: 120 MAX:  -18.085106383    AVG:  -18.085106383
EPOCH: 121 MAX:  -18.085106383    AVG:  -18.085106383
EPOCH: 122 MAX:  -18.085106383    AVG:  -18.085106383
EPOCH: 123 MAX:  -18.085106383    AVG:  -18.085106383
EPOCH: 124 MAX:  -18.085106383    AVG:  -18.085106383
EPOCH: 125 MAX:  -18.085106383    AVG:  -18.085106383
EPOCH: 126 MAX:  -18.085106383    AVG:  -18.085106383
EPOCH: 127 MAX:  -18.085106383    AVG:  -18.085106383
EPOCH: 128 MAX:  -18.085106383    AVG:  -18.085106383
EPOCH: 129 MAX:  -18.085106383    AVG:  -18.085106383
EPOCH: 130 MAX:  -18.085106383    AVG:  -18.085106383
EPOCH: 131 MAX:  -18.085106383    AVG:  -18.085106383
EPOCH: 132 MAX:  -18.085106383    AVG:  -18.085106383
EPOCH: 133 MAX:  -18.085106383    AVG:  -18.085106383
EPOCH: 134 MAX:  -18.085106383    AVG:  -18.085106383
EPOCH: 135 MAX:  -18.085106383    AVG:  -18.085106383
EPOCH: 136 MAX:  -18.085106383    AVG:  -18.085106383
EPOCH: 137 MAX:  -18.085106383    AVG:  -18.085106383
EPOCH: 138 MAX:  -18.085106383    AVG:  -18.085106383
EPOCH: 139 MAX:  -18.085106383    AVG:  -18.085106383
EPOCH: 140 MAX:  -18.085106383    AVG:  -18.085106383
EPOCH: 141 MAX:  -18.085106383    AVG:  -18.085106383
EPOCH: 142 MAX:  -18.085106383    AVG:  -18.085106383
EPOCH: 143 MAX:  -18.085106383    AVG:  -18.085106383
EPOCH: 144 MAX:  -18.085106383    AVG:  -18.085106383
EPOCH: 145 MAX:  -18.085106383    AVG:  -18.085106383
EPOCH: 146 MAX:  -18.085106383    AVG:  -18.085106383
EPOCH: 147 MAX:  -18.085106383    AVG:  -18.085106383
EPOCH: 148 MAX:  -18.085106383    AVG:  -18.085106383
EPOCH: 149 MAX:  -18.085106383    AVG:  -18.085106383
EPOCH: 150 MAX:  -18.085106383    AVG:  -18.085106383
EPOCH: 151 MAX:  -18.085106383    AVG:  -18.085106383
EPOCH: 152 MAX:  -18.085106383    AVG:  -18.085106383
EPOCH: 153 MAX:  -18.085106383    AVG:  -18.085106383
EPOCH: 154 MAX:  -18.085106383    AVG:  -18.085106383
EPOCH: 155 MAX:  -18.085106383    AVG:  -18.085106383
EPOCH: 156 MAX:  -18.085106383    AVG:  -18.085106383
EPOCH: 157 MAX:  -18.085106383    AVG:  -18.085106383
EPOCH: 158 MAX:  -18.085106383    AVG:  -18.085106383
EPOCH: 159 MAX:  -18.085106383    AVG:  -18.085106383
EPOCH: 160 MAX:  -18.085106383    AVG:  -18.085106383
EPOCH: 161 MAX:  -18.085106383    AVG:  -18.085106383
EPOCH: 162 MAX:  -18.085106383    AVG:  -18.085106383
EPOCH: 163 MAX:  -18.085106383    AVG:  -18.085106383
EPOCH: 164 MAX:  -18.085106383    AVG:  -18.085106383
EPOCH: 165 MAX:  -18.085106383    AVG:  -18.085106383
EPOCH: 166 MAX:  -18.085106383    AVG:  -18.085106383
EPOCH: 167 MAX:  -18.085106383    AVG:  -18.085106383
EPOCH: 168 MAX:  -18.085106383    AVG:  -18.085106383
EPOCH: 169 MAX:  -18.085106383    AVG:  -18.085106383
HELPER:  ....
EPOCH: 170 MAX:  -18.085106383    AVG:  -18.085106383
EPOCH: 171 MAX:  -18.085106383    AVG:  -18.085106383
EPOCH: 172 MAX:  -18.085106383    AVG:  -18.085106383
EPOCH: 173 MAX:  -18.085106383    AVG:  -18.085106383
EPOCH: 174 MAX:  -18.085106383    AVG:  -18.085106383
EPOCH: 175 MAX:  -18.085106383    AVG:  -18.085106383
EPOCH: 176 MAX:  -18.085106383    AVG:  -18.085106383
EPOCH: 177 MAX:  -18.085106383    AVG:  -18.085106383
EPOCH: 178 MAX:  -18.085106383    AVG:  -18.085106383
EPOCH: 179 MAX:  -18.085106383    AVG:  -18.085106383
EPOCH: 180 MAX:  -18.085106383    AVG:  -18.085106383
EPOCH: 181 MAX:  -18.085106383    AVG:  -18.085106383
EPOCH: 182 MAX:  -18.085106383    AVG:  -18.085106383
EPOCH: 183 MAX:  -18.085106383    AVG:  -18.085106383
EPOCH: 184 MAX:  -18.085106383    AVG:  -18.085106383
EPOCH: 185 MAX:  -18.085106383    AVG:  -18.085106383
EPOCH: 186 MAX:  -18.085106383    AVG:  -18.085106383
EPOCH: 187 MAX:  -18.085106383    AVG:  -18.085106383
EPOCH: 188 MAX:  -18.085106383    AVG:  -18.085106383
EPOCH: 189 MAX:  -18.085106383    AVG:  -18.085106383
EPOCH: 190 MAX:  -18.085106383    AVG:  -18.085106383
EPOCH: 191 MAX:  -18.085106383    AVG:  -18.085106383
EPOCH: 192 MAX:  -18.085106383    AVG:  -18.085106383
EPOCH: 193 MAX:  -18.085106383    AVG:  -18.085106383
EPOCH: 194 MAX:  -18.085106383    AVG:  -18.085106383
EPOCH: 195 MAX:  -18.085106383    AVG:  -18.085106383
EPOCH: 196 MAX:  -18.085106383    AVG:  -18.085106383
EPOCH: 197 MAX:  -18.085106383    AVG:  -18.085106383
EPOCH: 198 MAX:  -18.085106383    AVG:  -18.085106383
EPOCH: 199 MAX:  -18.085106383    AVG:  -18.085106383
EPOCH: 200 MAX:  -18.085106383    AVG:  -18.085106383
EPOCH: 201 MAX:  -18.085106383    AVG:  -18.085106383
EPOCH: 202 MAX:  -18.085106383    AVG:  -18.085106383
EPOCH: 203 MAX:  -18.085106383    AVG:  -18.085106383
EPOCH: 204 MAX:  -18.085106383    AVG:  -18.085106383
EPOCH: 205 MAX:  -18.085106383    AVG:  -18.085106383
EPOCH: 206 MAX:  -18.085106383    AVG:  -18.085106383
EPOCH: 207 MAX:  -18.085106383    AVG:  -18.085106383
EPOCH: 208 MAX:  -18.085106383    AVG:  -18.085106383
EPOCH: 209 MAX:  -18.085106383    AVG:  -18.085106383
EPOCH: 210 MAX:  -18.085106383    AVG:  -18.085106383
EPOCH: 211 MAX:  -18.085106383    AVG:  -18.085106383
EPOCH: 212 MAX:  -18.085106383    AVG:  -18.085106383
EPOCH: 213 MAX:  -18.085106383    AVG:  -18.085106383
EPOCH: 214 MAX:  -18.085106383    AVG:  -18.085106383
EPOCH: 215 MAX:  -18.085106383    AVG:  -18.085106383
EPOCH: 216 MAX:  -18.085106383    AVG:  -18.085106383
EPOCH: 217 MAX:  -18.085106383    AVG:  -18.085106383
EPOCH: 218 MAX:  -18.085106383    AVG:  -18.085106383
EPOCH: 219 MAX:  -18.085106383    AVG:  -18.085106383
EPOCH: 220 MAX:  -18.085106383    AVG:  -18.085106383
EPOCH: 221 MAX:  -18.085106383    AVG:  -18.085106383
EPOCH: 222 MAX:  -18.085106383    AVG:  -18.085106383
EPOCH: 223 MAX:  -18.085106383    AVG:  -18.085106383
EPOCH: 224 MAX:  -18.085106383    AVG:  -18.085106383
EPOCH: 225 MAX:  -18.085106383    AVG:  -18.085106383
EPOCH: 226 MAX:  -18.085106383    AVG:  -18.085106383
EPOCH: 227 MAX:  -18.085106383    AVG:  -18.085106383
EPOCH: 228 MAX:  -18.085106383    AVG:  -18.085106383
EPOCH: 229 MAX:  -18.085106383    AVG:  -18.085106383
EPOCH: 230 MAX:  -18.085106383    AVG:  -18.085106383
EPOCH: 231 MAX:  -18.085106383    AVG:  -18.085106383
EPOCH: 232 MAX:  -18.085106383    AVG:  -18.085106383
EPOCH: 233 MAX:  -18.085106383    AVG:  -18.085106383
EPOCH: 234 MAX:  -18.085106383    AVG:  -18.085106383
EPOCH: 235 MAX:  -18.085106383    AVG:  -18.085106383
EPOCH: 236 MAX:  -18.085106383    AVG:  -18.085106383
EPOCH: 237 MAX:  -18.085106383    AVG:  -18.085106383
EPOCH: 238 MAX:  -18.085106383    AVG:  -18.085106383
EPOCH: 239 MAX:  -18.085106383    AVG:  -18.085106383
HELPER:  ....
---------------------------
CH: 0 178.000000000
CH: 1 70.000000000
CH: 2 29.000000000
CH: 3 200.000000000
CH: 4 205.000000000
CH: 5 47.000000000
CH: 6 37.000000000
CH: 7 61.000000000
CH: 8 72.000000000
CH: 9 150.000000000
CH: 10 101.000000000
CH: 11 70.000000000
CH: 12 221.000000000
CH: 13 189.000000000
CH: 14 205.000000000
CH: 15 82.000000000
CH: 16 82.000000000
CH: 17 107.000000000
CH: 18 221.000000000
CH: 19 189.000000000
CH: 20 178.000000000
CH: 21 199.000000000
CH: 22 82.000000000
CH: 23 207.000000000
CH: 24 1.000000000
CH: 25 1.000000000
CH: 26 1.000000000
CH: 27 1.000000000
CH: 28 1.000000000
CH: 29 1.000000000
CH: 30 1.000000000
CH: 31 1.000000000
CH: 32 1.000000000
CH: 33 1.000000000
CH: 34 1.000000000
CH: 35 1.000000000
CH: 36 1.000000000
CH: 37 1.000000000
CH: 38 1.000000000
CH: 39 1.000000000
CH: 40 1.000000000
CH: 41 1.000000000
CH: 42 1.000000000
CH: 43 1.000000000
CH: 44 1.000000000
CH: 45 1.000000000
CH: 46 1.000000000





END ------------------------
ERROR: 0.000000000
NUM OF COLORS USED = 18
